(set-logic HORN)
(declare-fun state (Int (Array Int Int) (Array Int Int) (Array Int Int) (Array Int Int) Int Int (Array Int Int) (Array Int Int) Int Int Int Int Int Int Int Int Int Int Int Int Bool Bool Bool Bool Bool Bool (Array Int Int)) Bool)
(assert (forall ((|hhv_ULTIMATE.start_ULTIMATE.startEXIT_0_Int| Int) (|hhv_ULTIMATE.start_ULTIMATE.startEXIT_1_Array_Int_Int| (Array Int Int)) (|hhv_ULTIMATE.start_ULTIMATE.startEXIT_2_Array_Int_Int| (Array Int Int)) (|hhv_ULTIMATE.start_ULTIMATE.startEXIT_3_Array_Int_Array_Int_Int| (Array Int Int)) (|hhv_ULTIMATE.start_ULTIMATE.startEXIT_4_Array_Int_Array_Int_Int| (Array Int Int)) (|hhv_ULTIMATE.start_ULTIMATE.startEXIT_5_Int| Int) (|hhv_ULTIMATE.start_ULTIMATE.startEXIT_6_Int| Int) (|hhv_ULTIMATE.start_ULTIMATE.startEXIT_7_Array_Int_Int| (Array Int Int)) (|hhv_ULTIMATE.start_ULTIMATE.startEXIT_8_Array_Int_Int| (Array Int Int)) (|hhv_ULTIMATE.start_ULTIMATE.startEXIT_9_Int| Int) (|hhv_ULTIMATE.start_ULTIMATE.startEXIT_10_Int| Int) (|hhv_ULTIMATE.start_ULTIMATE.startEXIT_11_Int| Int) (|hhv_ULTIMATE.start_ULTIMATE.startEXIT_12_Int| Int) (|hhv_ULTIMATE.start_ULTIMATE.startEXIT_13_Int| Int) (|hhv_ULTIMATE.start_ULTIMATE.startEXIT_14_Int| Int) (|hhv_ULTIMATE.start_ULTIMATE.startEXIT_15_Int| Int) (|hhv_ULTIMATE.start_ULTIMATE.startEXIT_16_Int| Int) (|hhv_ULTIMATE.start_ULTIMATE.startEXIT_17_Int| Int) (|hhv_ULTIMATE.start_ULTIMATE.startEXIT_18_Int| Int) (|hhv_ULTIMATE.start_ULTIMATE.startEXIT_19_Int| Int) (|hhv_ULTIMATE.start_ULTIMATE.startEXIT_20_Int| Int) (|hbv_ULTIMATE.start_L2-1_21_Bool| Bool) (|.loc.6| Bool) (|.loc.7| Bool) (|.loc.8| Bool) (|.loc.9| Bool) (|.loc.10| Bool) (|hbv_ULTIMATE.start_L-1_1_Array_Int_Int| (Array Int Int)) (|.x.869| Int) (|.x.867| (Array Int Int)) (|.x.865| Int) (|.x.863| (Array Int Int)) (|.x.859| Int) (|.x.861| (Array Int Int)) (|.x.860| (Array Int Int)) (|hhv_ULTIMATE.start_ULTIMATE.startEXIT_21_Bool| Bool) (|.x.870| Int) (|.x.871| Int) (|.x.872| Int) (|.x.874| Int) (|.loc.12| Bool) (|.x.875| Int) (|.x.873| Int) (|.x.878| Int) (|.loc.13| Bool) (|.loc.11| Bool) (|.x.879| Int) (|.x.877| Int) (|.x.876| Int) (|.x.862| (Array Int Int)) (|.loc.15| Bool) (|.loc.14| Bool) (|.x.868| Int) (|.x.864| Int) (|.x.866| (Array Int Int)) (|.xtv.1| (Array Int Int))) (=> (and (and (and (and (and .loc.6 (not .loc.7)) (not .loc.8)) (not .loc.9)) (not .loc.10)) (and (and (and (and (and (= hhv_ULTIMATE.start_ULTIMATE.startEXIT_1_Array_Int_Int hhv_ULTIMATE.start_ULTIMATE.startEXIT_2_Array_Int_Int) (= hhv_ULTIMATE.start_ULTIMATE.startEXIT_7_Array_Int_Int hhv_ULTIMATE.start_ULTIMATE.startEXIT_8_Array_Int_Int)) (= hhv_ULTIMATE.start_ULTIMATE.startEXIT_5_Int hhv_ULTIMATE.start_ULTIMATE.startEXIT_6_Int)) (not hbv_ULTIMATE.start_L2-1_21_Bool)) (= hhv_ULTIMATE.start_ULTIMATE.startEXIT_3_Array_Int_Array_Int_Int hhv_ULTIMATE.start_ULTIMATE.startEXIT_4_Array_Int_Array_Int_Int)) (= hhv_ULTIMATE.start_ULTIMATE.startEXIT_9_Int hhv_ULTIMATE.start_ULTIMATE.startEXIT_10_Int))) (state |hhv_ULTIMATE.start_ULTIMATE.startEXIT_0_Int| |hhv_ULTIMATE.start_ULTIMATE.startEXIT_1_Array_Int_Int| |hhv_ULTIMATE.start_ULTIMATE.startEXIT_2_Array_Int_Int| |hhv_ULTIMATE.start_ULTIMATE.startEXIT_3_Array_Int_Array_Int_Int| |hhv_ULTIMATE.start_ULTIMATE.startEXIT_4_Array_Int_Array_Int_Int| |hhv_ULTIMATE.start_ULTIMATE.startEXIT_5_Int| |hhv_ULTIMATE.start_ULTIMATE.startEXIT_6_Int| |hhv_ULTIMATE.start_ULTIMATE.startEXIT_7_Array_Int_Int| |hhv_ULTIMATE.start_ULTIMATE.startEXIT_8_Array_Int_Int| |hhv_ULTIMATE.start_ULTIMATE.startEXIT_9_Int| |hhv_ULTIMATE.start_ULTIMATE.startEXIT_10_Int| |hhv_ULTIMATE.start_ULTIMATE.startEXIT_11_Int| |hhv_ULTIMATE.start_ULTIMATE.startEXIT_12_Int| |hhv_ULTIMATE.start_ULTIMATE.startEXIT_13_Int| |hhv_ULTIMATE.start_ULTIMATE.startEXIT_14_Int| |hhv_ULTIMATE.start_ULTIMATE.startEXIT_15_Int| |hhv_ULTIMATE.start_ULTIMATE.startEXIT_16_Int| |hhv_ULTIMATE.start_ULTIMATE.startEXIT_17_Int| |hhv_ULTIMATE.start_ULTIMATE.startEXIT_18_Int| |hhv_ULTIMATE.start_ULTIMATE.startEXIT_19_Int| |hhv_ULTIMATE.start_ULTIMATE.startEXIT_20_Int| |hbv_ULTIMATE.start_L2-1_21_Bool| |.loc.6| |.loc.7| |.loc.8| |.loc.9| |.loc.10| |hbv_ULTIMATE.start_L-1_1_Array_Int_Int|))))
(assert (forall ((|hhv_ULTIMATE.start_ULTIMATE.startEXIT_0_Int| Int) (|hhv_ULTIMATE.start_ULTIMATE.startEXIT_1_Array_Int_Int| (Array Int Int)) (|hhv_ULTIMATE.start_ULTIMATE.startEXIT_2_Array_Int_Int| (Array Int Int)) (|hhv_ULTIMATE.start_ULTIMATE.startEXIT_3_Array_Int_Array_Int_Int| (Array Int Int)) (|hhv_ULTIMATE.start_ULTIMATE.startEXIT_4_Array_Int_Array_Int_Int| (Array Int Int)) (|hhv_ULTIMATE.start_ULTIMATE.startEXIT_5_Int| Int) (|hhv_ULTIMATE.start_ULTIMATE.startEXIT_6_Int| Int) (|hhv_ULTIMATE.start_ULTIMATE.startEXIT_7_Array_Int_Int| (Array Int Int)) (|hhv_ULTIMATE.start_ULTIMATE.startEXIT_8_Array_Int_Int| (Array Int Int)) (|hhv_ULTIMATE.start_ULTIMATE.startEXIT_9_Int| Int) (|hhv_ULTIMATE.start_ULTIMATE.startEXIT_10_Int| Int) (|hhv_ULTIMATE.start_ULTIMATE.startEXIT_11_Int| Int) (|hhv_ULTIMATE.start_ULTIMATE.startEXIT_12_Int| Int) (|hhv_ULTIMATE.start_ULTIMATE.startEXIT_13_Int| Int) (|hhv_ULTIMATE.start_ULTIMATE.startEXIT_14_Int| Int) (|hhv_ULTIMATE.start_ULTIMATE.startEXIT_15_Int| Int) (|hhv_ULTIMATE.start_ULTIMATE.startEXIT_16_Int| Int) (|hhv_ULTIMATE.start_ULTIMATE.startEXIT_17_Int| Int) (|hhv_ULTIMATE.start_ULTIMATE.startEXIT_18_Int| Int) (|hhv_ULTIMATE.start_ULTIMATE.startEXIT_19_Int| Int) (|hhv_ULTIMATE.start_ULTIMATE.startEXIT_20_Int| Int) (|hbv_ULTIMATE.start_L2-1_21_Bool| Bool) (|.loc.6| Bool) (|.loc.7| Bool) (|.loc.8| Bool) (|.loc.9| Bool) (|.loc.10| Bool) (|hbv_ULTIMATE.start_L-1_1_Array_Int_Int| (Array Int Int)) (|.x.869| Int) (|.x.867| (Array Int Int)) (|.x.865| Int) (|.x.863| (Array Int Int)) (|.x.859| Int) (|.x.861| (Array Int Int)) (|.x.860| (Array Int Int)) (|hhv_ULTIMATE.start_ULTIMATE.startEXIT_21_Bool| Bool) (|.x.870| Int) (|.x.871| Int) (|.x.872| Int) (|.x.874| Int) (|.loc.12| Bool) (|.x.875| Int) (|.x.873| Int) (|.x.878| Int) (|.loc.13| Bool) (|.loc.11| Bool) (|.x.879| Int) (|.x.877| Int) (|.x.876| Int) (|.x.862| (Array Int Int)) (|.loc.15| Bool) (|.loc.14| Bool) (|.x.868| Int) (|.x.864| Int) (|.x.866| (Array Int Int)) (|.xtv.1| (Array Int Int))) (=> (and (state |hhv_ULTIMATE.start_ULTIMATE.startEXIT_0_Int| |hhv_ULTIMATE.start_ULTIMATE.startEXIT_1_Array_Int_Int| |hhv_ULTIMATE.start_ULTIMATE.startEXIT_2_Array_Int_Int| |hhv_ULTIMATE.start_ULTIMATE.startEXIT_3_Array_Int_Array_Int_Int| |hhv_ULTIMATE.start_ULTIMATE.startEXIT_4_Array_Int_Array_Int_Int| |hhv_ULTIMATE.start_ULTIMATE.startEXIT_5_Int| |hhv_ULTIMATE.start_ULTIMATE.startEXIT_6_Int| |hhv_ULTIMATE.start_ULTIMATE.startEXIT_7_Array_Int_Int| |hhv_ULTIMATE.start_ULTIMATE.startEXIT_8_Array_Int_Int| |hhv_ULTIMATE.start_ULTIMATE.startEXIT_9_Int| |hhv_ULTIMATE.start_ULTIMATE.startEXIT_10_Int| |hhv_ULTIMATE.start_ULTIMATE.startEXIT_11_Int| |hhv_ULTIMATE.start_ULTIMATE.startEXIT_12_Int| |hhv_ULTIMATE.start_ULTIMATE.startEXIT_13_Int| |hhv_ULTIMATE.start_ULTIMATE.startEXIT_14_Int| |hhv_ULTIMATE.start_ULTIMATE.startEXIT_15_Int| |hhv_ULTIMATE.start_ULTIMATE.startEXIT_16_Int| |hhv_ULTIMATE.start_ULTIMATE.startEXIT_17_Int| |hhv_ULTIMATE.start_ULTIMATE.startEXIT_18_Int| |hhv_ULTIMATE.start_ULTIMATE.startEXIT_19_Int| |hhv_ULTIMATE.start_ULTIMATE.startEXIT_20_Int| |hbv_ULTIMATE.start_L2-1_21_Bool| |.loc.6| |.loc.7| |.loc.8| |.loc.9| |.loc.10| |hbv_ULTIMATE.start_L-1_1_Array_Int_Int|) (let ((.def_38 (not .loc.7))) (let ((.def_40 (not .loc.8))) (let ((.def_42 (not .loc.9))) (let ((.def_44 (not .loc.10))) (let ((.def_76 (= hhv_ULTIMATE.start_ULTIMATE.startEXIT_1_Array_Int_Int .x.860))) (let ((.def_80 (= hhv_ULTIMATE.start_ULTIMATE.startEXIT_11_Int .x.870))) (let ((.def_83 (= hhv_ULTIMATE.start_ULTIMATE.startEXIT_12_Int .x.871))) (let ((.def_86 (= hhv_ULTIMATE.start_ULTIMATE.startEXIT_13_Int .x.872))) (let ((.def_89 (= hhv_ULTIMATE.start_ULTIMATE.startEXIT_15_Int .x.874))) (let ((.def_91 (not .loc.6))) (let ((.def_102 (= hbv_ULTIMATE.start_L2-1_21_Bool hhv_ULTIMATE.start_ULTIMATE.startEXIT_21_Bool))) (let ((.def_110 (= hhv_ULTIMATE.start_ULTIMATE.startEXIT_14_Int 0))) (let ((.def_114 (and .def_86 (and .def_83 (and .def_76 .def_80))))) (let ((.def_115 (and .def_89 .def_114))) (let ((.def_119 (not .loc.12))) (let ((.def_125 (= hhv_ULTIMATE.start_ULTIMATE.startEXIT_16_Int .x.875))) (let ((.def_127 (= hhv_ULTIMATE.start_ULTIMATE.startEXIT_14_Int .x.873))) (let ((.def_130 (= hhv_ULTIMATE.start_ULTIMATE.startEXIT_19_Int .x.878))) (let ((.def_135 (not .loc.11))) (let ((.def_139 (<= 100000 hhv_ULTIMATE.start_ULTIMATE.startEXIT_20_Int))) (let ((.def_144 (select hhv_ULTIMATE.start_ULTIMATE.startEXIT_3_Array_Int_Array_Int_Int hhv_ULTIMATE.start_ULTIMATE.startEXIT_13_Int))) (let ((.def_163 (not .loc.13))) (let ((.def_168 (= hhv_ULTIMATE.start_ULTIMATE.startEXIT_20_Int .x.879))) (let ((.def_170 (= hhv_ULTIMATE.start_ULTIMATE.startEXIT_18_Int .x.877))) (let ((.def_180 (and .def_89 (and .def_114 .def_127)))) (let ((.def_196 (and .def_130 (and .def_170 (and .def_125 .def_180))))) (let ((.def_207 (and hbv_ULTIMATE.start_L2-1_21_Bool .def_76))) (let ((.def_216 (and .def_168 (and .def_130 (and .def_170 (and .def_125 (and .def_89 (and .def_127 (and .def_86 (and .def_83 (and .def_80 .def_207))))))))))) (let ((.def_227 (and .def_168 .def_196))) (let ((.def_228 (and .loc.7 .def_227))) (let ((.def_249 (and .def_38 (and .def_91 (and .loc.10 .def_227))))) (let ((.def_255 (<= 100000 hhv_ULTIMATE.start_ULTIMATE.startEXIT_17_Int))) (let ((.def_256 (or hbv_ULTIMATE.start_L2-1_21_Bool .def_255))) (let ((.def_260 (= hhv_ULTIMATE.start_ULTIMATE.startEXIT_17_Int .x.876))) (let ((.def_262 (= hhv_ULTIMATE.start_ULTIMATE.startEXIT_3_Array_Int_Array_Int_Int .x.862))) (let ((.def_266 (+ hhv_ULTIMATE.start_ULTIMATE.startEXIT_12_Int (* 4 hhv_ULTIMATE.start_ULTIMATE.startEXIT_17_Int)))) (let ((.def_270 (not .def_255))) (let ((.def_273 (= (+ hhv_ULTIMATE.start_ULTIMATE.startEXIT_17_Int (* (- 1) .x.876)) (- 1)))) (let ((.def_274 (and .def_270 .def_273))) (let ((.def_294 (and .def_125 (and .def_89 (and .def_127 (and .def_86 (and .def_83 (and .def_80 (and .def_76 .def_262))))))))) (let ((.def_298 (and .def_168 (and .def_130 (and .def_170 (and .def_260 .def_294)))))) (let ((.def_307 (not .loc.15))) (let ((.def_321 (and .def_168 (and .def_130 (and .def_170 (and .def_260 (and .def_125 (and .def_89 (and .def_127 (and .def_86 (and .def_83 (and .def_80 (and .def_207 .def_262))))))))))))) (let ((.def_322 (and .loc.8 .def_321))) (let ((.def_336 (and .loc.6 (and .def_168 (and .def_130 (and .def_170 .def_294)))))) (let ((.def_337 (and .loc.7 .def_336))) (let ((.def_338 (and .loc.8 .def_337))) (let ((.def_346 (= .x.876 0))) (let ((.def_347 (or hbv_ULTIMATE.start_L2-1_21_Bool .def_346))) (let ((.def_351 (not .loc.14))) (let ((.def_353 (and .loc.7 .def_321))) (let ((.def_354 (and .loc.8 .def_353))) (let ((.def_365 (and .loc.7 .def_298))) (let ((.def_366 (and .loc.8 .def_365))) (let ((.def_384 (and .loc.8 .def_228))) (let ((.def_396 (and .loc.8 .def_336))) (let ((.def_419 (and .loc.8 .def_298))) (let ((.def_439 (and .loc.8 .def_227))) (and (and (= hhv_ULTIMATE.start_ULTIMATE.startEXIT_10_Int .x.869) (and (= hhv_ULTIMATE.start_ULTIMATE.startEXIT_8_Array_Int_Int .x.867) (and (= hhv_ULTIMATE.start_ULTIMATE.startEXIT_6_Int .x.865) (and (= hhv_ULTIMATE.start_ULTIMATE.startEXIT_4_Array_Int_Array_Int_Int .x.863) (and (= hhv_ULTIMATE.start_ULTIMATE.startEXIT_0_Int .x.859) (= hhv_ULTIMATE.start_ULTIMATE.startEXIT_2_Array_Int_Int .x.861)))))) (or (and (or (or (or (or (or (or (or (or (or (or (or (or (or (or (or (or (or (or (or (or (or (or (or (or (or (or (or (and (or (and .def_42 (or (or (and (or (and (or (or (or (or (or (or (and (or (and (or (and (or (and (and (and (and (and (and .def_76 hhv_ULTIMATE.start_ULTIMATE.startEXIT_21_Bool) .def_80) .def_83) .def_86) .def_89) .def_91) (and (or hbv_ULTIMATE.start_L2-1_21_Bool (and (= .x.874 0) (= .x.860 (store hhv_ULTIMATE.start_ULTIMATE.startEXIT_1_Array_Int_Int hhv_ULTIMATE.start_ULTIMATE.startEXIT_13_Int 0)))) (and (and .loc.6 (or hhv_ULTIMATE.start_ULTIMATE.startEXIT_21_Bool (= .x.870 .x.874))) .def_102))) (and (and .loc.8 .def_38) .loc.12)) (and (or hbv_ULTIMATE.start_L2-1_21_Bool .def_110) (and .def_40 (and (and .def_102 (and .loc.7 (and .loc.6 .def_115))) .def_119)))) (and (and (and (and .def_125 .def_127) .def_130) .loc.13) .def_135)) (and (or hbv_ULTIMATE.start_L2-1_21_Bool (and (not .def_139) (and (= .x.875 (select .def_144 (+ hhv_ULTIMATE.start_ULTIMATE.startEXIT_12_Int (* 4 hhv_ULTIMATE.start_ULTIMATE.startEXIT_20_Int)))) (and (= .x.878 (ite (= .x.875 49) 1 0)) (= .x.873 .x.878))))) (and (and .def_40 (and .def_102 (and .loc.12 (and .loc.11 (and .def_91 (and .loc.7 .def_115)))))) .def_163))) (and .loc.10 (and .def_168 .def_170))) (and (or hhv_ULTIMATE.start_ULTIMATE.startEXIT_21_Bool (= (+ hhv_ULTIMATE.start_ULTIMATE.startEXIT_20_Int (* (- 1) .x.879)) (- 1))) (and .def_44 (and .def_163 (and .def_40 (and .def_102 (and .def_135 (and .loc.12 (and .def_38 (and .def_91 (and .def_130 .def_180))))))))))) (and (or hbv_ULTIMATE.start_L2-1_21_Bool (= .x.879 0)) (and .def_163 (and .def_40 (and .def_102 (and .def_135 (and .loc.12 (and .def_38 (and .loc.10 (and .loc.6 .def_196)))))))))) (and .def_40 (and .def_119 (and .def_102 (and .loc.13 (and .loc.11 (and .def_91 (and .loc.10 (and .loc.7 .def_216))))))))) (and (or hbv_ULTIMATE.start_L2-1_21_Bool .def_139) (and .def_40 (and .def_119 (and .def_102 (and .loc.13 (and .loc.11 (and .def_91 (and .loc.10 .def_228))))))))) (and .def_163 (and .def_40 (and .def_119 (and .def_102 (and .loc.11 (and .def_38 (and .def_91 (and .loc.10 .def_216))))))))) (and (and .def_163 (and .def_40 (and .def_119 (and .def_102 (and .loc.11 .def_249))))) .def_256)) (and .def_260 .def_262)) (and (or hbv_ULTIMATE.start_L2-1_21_Bool (and (= .x.862 (store hhv_ULTIMATE.start_ULTIMATE.startEXIT_3_Array_Int_Array_Int_Int hhv_ULTIMATE.start_ULTIMATE.startEXIT_13_Int (store .def_144 .def_266 49))) .def_274)) (and .def_163 (and .def_40 (and .def_119 (and .def_102 (and .def_135 .def_249))))))) .loc.15) (and (or hbv_ULTIMATE.start_L2-1_21_Bool (not .def_110)) (and (and .def_163 (and .def_40 (and .def_119 (and .def_102 (and .def_135 (and .loc.10 (and .loc.7 (and .loc.6 .def_298)))))))) .def_307))) (and .def_307 (and .def_163 (and .def_119 (and .def_102 (and .def_135 (and .def_38 (and .def_91 (and .loc.10 .def_322)))))))))) (and (and .def_44 (and .def_163 (and .def_119 (and .def_102 (and .def_135 (and .loc.15 (and .loc.9 .def_338))))))) .def_347)) .def_351) (and .def_307 (and .def_44 (and .def_102 (and .loc.14 (and .loc.13 (and .loc.12 (and .loc.11 (and .def_91 (and .loc.9 .def_354)))))))))) (and .def_307 (and .def_256 (and .def_44 (and .def_102 (and .loc.14 (and .loc.13 (and .loc.12 (and .loc.11 (and .def_91 (and .loc.9 .def_366))))))))))) (and (or hbv_ULTIMATE.start_L2-1_21_Bool (and .def_274 (= .x.862 (store hhv_ULTIMATE.start_ULTIMATE.startEXIT_3_Array_Int_Array_Int_Int hhv_ULTIMATE.start_ULTIMATE.startEXIT_13_Int (store .def_144 .def_266 48))))) (and .def_307 (and .def_44 (and .def_102 (and .def_135 (and .loc.14 (and .loc.13 (and .loc.12 (and .def_91 (and .loc.9 .def_384))))))))))) (and .def_347 (and .def_307 (and .def_44 (and .def_102 (and .def_135 (and .loc.14 (and .loc.13 (and .loc.12 (and .def_38 (and .loc.9 .def_396))))))))))) (and .def_307 (and .def_44 (and .def_119 (and .def_102 (and .loc.14 (and .loc.13 (and .loc.11 (and .def_38 (and .def_91 (and .loc.9 .def_322))))))))))) (and .def_307 (and .def_256 (and .def_44 (and .def_119 (and .def_102 (and .loc.14 (and .loc.13 (and .loc.11 (and .def_38 (and .def_91 (and .loc.9 .def_419)))))))))))) (and (or hbv_ULTIMATE.start_L2-1_21_Bool (and .def_273 (and .def_270 (= .x.862 (store hhv_ULTIMATE.start_ULTIMATE.startEXIT_3_Array_Int_Array_Int_Int hhv_ULTIMATE.start_ULTIMATE.startEXIT_13_Int (store .def_144 .def_266 47)))))) (and .def_307 (and .def_44 (and .def_119 (and .def_102 (and .def_135 (and .loc.14 (and .loc.13 (and .def_38 (and .def_91 (and .loc.9 .def_439)))))))))))) (and .def_347 (and .def_307 (and .def_44 (and .def_40 (and .def_119 (and .def_102 (and .def_135 (and .loc.14 (and .loc.13 (and .loc.9 .def_337))))))))))) (and .def_307 (and .def_44 (and .def_163 (and .def_40 (and .def_102 (and .loc.14 (and .loc.12 (and .loc.11 (and .def_91 (and .loc.9 .def_353))))))))))) (and .def_307 (and .def_256 (and .def_44 (and .def_163 (and .def_40 (and .def_102 (and .loc.14 (and .loc.12 (and .loc.11 (and .def_91 (and .loc.9 .def_365)))))))))))) (and (or hbv_ULTIMATE.start_L2-1_21_Bool (and .def_273 (and .def_270 (= .x.862 (store hhv_ULTIMATE.start_ULTIMATE.startEXIT_3_Array_Int_Array_Int_Int hhv_ULTIMATE.start_ULTIMATE.startEXIT_13_Int (store .def_144 .def_266 46)))))) (and .def_307 (and .def_44 (and .def_163 (and .def_40 (and .def_102 (and .def_135 (and .loc.14 (and .loc.12 (and .def_91 (and .loc.9 .def_228)))))))))))) (and .def_347 (and .def_307 (and .def_44 (and .def_163 (and .def_40 (and .def_102 (and .def_135 (and .loc.14 (and .loc.12 (and .def_38 (and .loc.9 .def_336)))))))))))) (and .def_307 (and .def_44 (and .def_163 (and .def_40 (and .def_119 (and .def_102 (and .loc.14 (and .loc.11 (and .def_38 (and .def_91 (and .loc.9 .def_321)))))))))))) (and .def_307 (and .def_256 (and .def_44 (and .def_163 (and .def_40 (and .def_119 (and .def_102 (and .loc.14 (and .loc.11 (and .def_38 (and .def_91 (and .loc.9 .def_298))))))))))))) (and (or hbv_ULTIMATE.start_L2-1_21_Bool (and .def_270 (and .def_273 (= .x.862 (store hhv_ULTIMATE.start_ULTIMATE.startEXIT_3_Array_Int_Array_Int_Int hhv_ULTIMATE.start_ULTIMATE.startEXIT_13_Int (store .def_144 .def_266 45)))))) (and .def_307 (and .def_44 (and .def_163 (and .def_40 (and .def_119 (and .def_102 (and .def_135 (and .loc.14 (and .def_38 (and .def_91 (and .loc.9 .def_227))))))))))))) (and .def_347 (and .def_307 (and .def_44 (and .def_163 (and .def_119 (and .def_102 (and .def_135 (and .loc.14 (and .def_42 .def_338)))))))))) (and .def_307 (and .def_44 (and .def_102 (and .def_351 (and .loc.13 (and .loc.12 (and .loc.11 (and .def_42 (and .def_91 .def_354)))))))))) (and .def_307 (and .def_256 (and .def_44 (and .def_102 (and .def_351 (and .loc.13 (and .loc.12 (and .loc.11 (and .def_42 (and .def_91 .def_366))))))))))) (and (or hbv_ULTIMATE.start_L2-1_21_Bool (and .def_273 (and .def_270 (= .x.862 (store hhv_ULTIMATE.start_ULTIMATE.startEXIT_3_Array_Int_Array_Int_Int hhv_ULTIMATE.start_ULTIMATE.startEXIT_13_Int (store .def_144 .def_266 44)))))) (and .def_307 (and .def_44 (and .def_102 (and .def_351 (and .def_135 (and .loc.13 (and .loc.12 (and .def_42 (and .def_91 .def_384))))))))))) (and .def_347 (and .def_307 (and .def_44 (and .def_102 (and .def_351 (and .def_135 (and .loc.13 (and .loc.12 (and .def_42 (and .def_38 .def_396))))))))))) (and .def_307 (and .def_44 (and .def_119 (and .def_102 (and .def_351 (and .loc.13 (and .loc.11 (and .def_42 (and .def_38 (and .def_91 .def_322))))))))))) (and .def_307 (and .def_256 (and .def_44 (and .def_119 (and .def_102 (and .def_351 (and .loc.13 (and .loc.11 (and .def_42 (and .def_38 (and .def_91 .def_419)))))))))))) (and (or hbv_ULTIMATE.start_L2-1_21_Bool (and .def_274 (= .x.862 (store hhv_ULTIMATE.start_ULTIMATE.startEXIT_3_Array_Int_Array_Int_Int hhv_ULTIMATE.start_ULTIMATE.startEXIT_13_Int (store .def_144 .def_266 43))))) (and .def_307 (and .def_44 (and .def_119 (and .def_102 (and .def_351 (and .def_135 (and .loc.13 (and .def_42 (and .def_38 (and .def_91 .def_439)))))))))))) (and .def_347 (and .def_307 (and .def_44 (and .def_40 (and .def_119 (and .def_102 (and .def_351 (and .def_135 (and .loc.13 (and .def_42 .def_337))))))))))) (and .def_307 (and .def_44 (and .def_163 (and .def_40 (and .def_102 (and .def_351 (and .loc.12 (and .loc.11 (and .def_42 (and .def_91 .def_353))))))))))) (and .def_307 (and .def_256 (and .def_44 (and .def_163 (and .def_40 (and .def_102 (and .def_351 (and .loc.12 (and .loc.11 (and .def_42 (and .def_91 .def_365)))))))))))) (and (or hbv_ULTIMATE.start_L2-1_21_Bool (and .def_270 (and .def_273 (= .x.862 (store hhv_ULTIMATE.start_ULTIMATE.startEXIT_3_Array_Int_Array_Int_Int hhv_ULTIMATE.start_ULTIMATE.startEXIT_13_Int (store .def_144 .def_266 42)))))) (and .def_307 (and .def_44 (and .def_163 (and .def_40 (and .def_102 (and .def_351 (and .def_135 (and .loc.12 (and .def_42 (and .def_91 .def_228)))))))))))) (and (= hhv_ULTIMATE.start_ULTIMATE.startEXIT_9_Int .x.868) (and (= hhv_ULTIMATE.start_ULTIMATE.startEXIT_5_Int .x.864) (= hhv_ULTIMATE.start_ULTIMATE.startEXIT_7_Array_Int_Int .x.866)))) (and (or hbv_ULTIMATE.start_L2-1_21_Bool (and (and (= .x.864 0) (= .x.868 0)) (= hbv_ULTIMATE.start_L-1_1_Array_Int_Int (store hhv_ULTIMATE.start_ULTIMATE.startEXIT_1_Array_Int_Int 0 0)))) (and (or hhv_ULTIMATE.start_ULTIMATE.startEXIT_21_Bool (and (and (and .def_346 (and (and (and (= .x.866 (store hhv_ULTIMATE.start_ULTIMATE.startEXIT_7_Array_Int_Int .x.872 400000)) (= (select hbv_ULTIMATE.start_L-1_1_Array_Int_Int .x.872) 0)) (not (= .x.872 0))) (= .x.860 (store hbv_ULTIMATE.start_L-1_1_Array_Int_Int .x.872 1)))) (not (<= .x.859 .x.872))) (= .x.871 0))) (and .def_307 (and .def_44 (and .def_163 (and .def_40 (and .def_102 (and .def_351 (and .def_135 (and .loc.12 (and .def_42 (and .def_38 (and .loc.6 (and .def_130 (and .def_127 (and .def_80 .def_262))))))))))))))))))))))))))))))))))))))))))))))))))))))))))))))))))))))))))))) (state |.x.859| |.x.860| |.x.861| |.x.862| |.x.863| |.x.864| |.x.865| |.x.866| |.x.867| |.x.868| |.x.869| |.x.870| |.x.871| |.x.872| |.x.873| |.x.874| |.x.875| |.x.876| |.x.877| |.x.878| |.x.879| |hhv_ULTIMATE.start_ULTIMATE.startEXIT_21_Bool| |.loc.11| |.loc.12| |.loc.13| |.loc.14| |.loc.15| |.xtv.1|))))
(assert (forall ((|hhv_ULTIMATE.start_ULTIMATE.startEXIT_0_Int| Int) (|hhv_ULTIMATE.start_ULTIMATE.startEXIT_1_Array_Int_Int| (Array Int Int)) (|hhv_ULTIMATE.start_ULTIMATE.startEXIT_2_Array_Int_Int| (Array Int Int)) (|hhv_ULTIMATE.start_ULTIMATE.startEXIT_3_Array_Int_Array_Int_Int| (Array Int Int)) (|hhv_ULTIMATE.start_ULTIMATE.startEXIT_4_Array_Int_Array_Int_Int| (Array Int Int)) (|hhv_ULTIMATE.start_ULTIMATE.startEXIT_5_Int| Int) (|hhv_ULTIMATE.start_ULTIMATE.startEXIT_6_Int| Int) (|hhv_ULTIMATE.start_ULTIMATE.startEXIT_7_Array_Int_Int| (Array Int Int)) (|hhv_ULTIMATE.start_ULTIMATE.startEXIT_8_Array_Int_Int| (Array Int Int)) (|hhv_ULTIMATE.start_ULTIMATE.startEXIT_9_Int| Int) (|hhv_ULTIMATE.start_ULTIMATE.startEXIT_10_Int| Int) (|hhv_ULTIMATE.start_ULTIMATE.startEXIT_11_Int| Int) (|hhv_ULTIMATE.start_ULTIMATE.startEXIT_12_Int| Int) (|hhv_ULTIMATE.start_ULTIMATE.startEXIT_13_Int| Int) (|hhv_ULTIMATE.start_ULTIMATE.startEXIT_14_Int| Int) (|hhv_ULTIMATE.start_ULTIMATE.startEXIT_15_Int| Int) (|hhv_ULTIMATE.start_ULTIMATE.startEXIT_16_Int| Int) (|hhv_ULTIMATE.start_ULTIMATE.startEXIT_17_Int| Int) (|hhv_ULTIMATE.start_ULTIMATE.startEXIT_18_Int| Int) (|hhv_ULTIMATE.start_ULTIMATE.startEXIT_19_Int| Int) (|hhv_ULTIMATE.start_ULTIMATE.startEXIT_20_Int| Int) (|hbv_ULTIMATE.start_L2-1_21_Bool| Bool) (|.loc.6| Bool) (|.loc.7| Bool) (|.loc.8| Bool) (|.loc.9| Bool) (|.loc.10| Bool) (|hbv_ULTIMATE.start_L-1_1_Array_Int_Int| (Array Int Int)) (|.x.869| Int) (|.x.867| (Array Int Int)) (|.x.865| Int) (|.x.863| (Array Int Int)) (|.x.859| Int) (|.x.861| (Array Int Int)) (|.x.860| (Array Int Int)) (|hhv_ULTIMATE.start_ULTIMATE.startEXIT_21_Bool| Bool) (|.x.870| Int) (|.x.871| Int) (|.x.872| Int) (|.x.874| Int) (|.loc.12| Bool) (|.x.875| Int) (|.x.873| Int) (|.x.878| Int) (|.loc.13| Bool) (|.loc.11| Bool) (|.x.879| Int) (|.x.877| Int) (|.x.876| Int) (|.x.862| (Array Int Int)) (|.loc.15| Bool) (|.loc.14| Bool) (|.x.868| Int) (|.x.864| Int) (|.x.866| (Array Int Int)) (|.xtv.1| (Array Int Int))) (=> (state |hhv_ULTIMATE.start_ULTIMATE.startEXIT_0_Int| |hhv_ULTIMATE.start_ULTIMATE.startEXIT_1_Array_Int_Int| |hhv_ULTIMATE.start_ULTIMATE.startEXIT_2_Array_Int_Int| |hhv_ULTIMATE.start_ULTIMATE.startEXIT_3_Array_Int_Array_Int_Int| |hhv_ULTIMATE.start_ULTIMATE.startEXIT_4_Array_Int_Array_Int_Int| |hhv_ULTIMATE.start_ULTIMATE.startEXIT_5_Int| |hhv_ULTIMATE.start_ULTIMATE.startEXIT_6_Int| |hhv_ULTIMATE.start_ULTIMATE.startEXIT_7_Array_Int_Int| |hhv_ULTIMATE.start_ULTIMATE.startEXIT_8_Array_Int_Int| |hhv_ULTIMATE.start_ULTIMATE.startEXIT_9_Int| |hhv_ULTIMATE.start_ULTIMATE.startEXIT_10_Int| |hhv_ULTIMATE.start_ULTIMATE.startEXIT_11_Int| |hhv_ULTIMATE.start_ULTIMATE.startEXIT_12_Int| |hhv_ULTIMATE.start_ULTIMATE.startEXIT_13_Int| |hhv_ULTIMATE.start_ULTIMATE.startEXIT_14_Int| |hhv_ULTIMATE.start_ULTIMATE.startEXIT_15_Int| |hhv_ULTIMATE.start_ULTIMATE.startEXIT_16_Int| |hhv_ULTIMATE.start_ULTIMATE.startEXIT_17_Int| |hhv_ULTIMATE.start_ULTIMATE.startEXIT_18_Int| |hhv_ULTIMATE.start_ULTIMATE.startEXIT_19_Int| |hhv_ULTIMATE.start_ULTIMATE.startEXIT_20_Int| |hbv_ULTIMATE.start_L2-1_21_Bool| |.loc.6| |.loc.7| |.loc.8| |.loc.9| |.loc.10| |hbv_ULTIMATE.start_L-1_1_Array_Int_Int|) (not (and hbv_ULTIMATE.start_L2-1_21_Bool (and .loc.10 (and (not .loc.9) (and .loc.8 (and .loc.7 (not .loc.6))))))))))
(check-sat)
